NAME : mr19
COMMENT : 19-city problem (DISC)
TYPE : TSP
DIMENSION : 19
EDGE_WEIGHT_TYPE : EUC_2D
NODE_COORD_SECTION
1 10 69
2 77 38
3 25 95
4 14 78
5 34 61
6 9 62
7 68 65
8 81 27
9 99 76
10 64 29
11 22 71
12 55 7
13 55 69
14 24 56
15 12 56
16 50 35
17 16 18
18 54 55
19 39 6
EOF
